
Gurobi 9.0.1 (linux64) logging started Fri May  1 00:43:08 2020

Gurobi Optimizer version 9.0.1 build v9.0.1rc0 (linux64)
Optimize a model with 1024 rows, 842 columns and 4020 nonzeros
Model fingerprint: 0x54bb26f2
Variable types: 0 continuous, 842 integer (810 binary)
Coefficient statistics:
  Matrix range     [1e+00, 8e+00]
  Objective range  [3e+00, 1e+02]
  Bounds range     [1e+00, 1e+00]
  RHS range        [1e+00, 9e+00]

User MIP start produced solution with objective 571 (0.00s)
Loaded user MIP start with objective 571

Presolve removed 140 rows and 156 columns
Presolve time: 0.02s
Presolved: 884 rows, 686 columns, 3552 nonzeros
Variable types: 0 continuous, 686 integer (658 binary)

Root relaxation: objective 4.127500e+02, 883 iterations, 0.04 seconds

    Nodes    |    Current Node    |     Objective Bounds      |     Work
 Expl Unexpl |  Obj  Depth IntInf | Incumbent    BestBd   Gap | It/Node Time

     0     0  412.75000    0   26  571.00000  412.75000  27.7%     -    0s
     0     0  536.00000    0   58  571.00000  536.00000  6.13%     -    0s
     0     0  536.00000    0   57  571.00000  536.00000  6.13%     -    0s
     0     0  536.75000    0   85  571.00000  536.75000  6.00%     -    0s
     0     0  536.75000    0   84  571.00000  536.75000  6.00%     -    0s
     0     0  541.75000    0   81  571.00000  541.75000  5.12%     -    0s
     0     0  541.75000    0   83  571.00000  541.75000  5.12%     -    0s
     0     0  541.75000    0   84  571.00000  541.75000  5.12%     -    0s
     0     0  541.75000    0   85  571.00000  541.75000  5.12%     -    0s
     0     0  541.75000    0   81  571.00000  541.75000  5.12%     -    0s
     0     0  541.75000    0   81  571.00000  541.75000  5.12%     -    0s
     0     0  541.75000    0   54  571.00000  541.75000  5.12%     -    0s
     0     0  541.75000    0   55  571.00000  541.75000  5.12%     -    0s
     0     0  541.75000    0   46  571.00000  541.75000  5.12%     -    0s
     0     0  541.75000    0   64  571.00000  541.75000  5.12%     -    0s
     0     0  541.75000    0   64  571.00000  541.75000  5.12%     -    0s
     0     0  541.75000    0   64  571.00000  541.75000  5.12%     -    0s
     0     2  541.75000    0   64  571.00000  541.75000  5.12%     -    0s
   395   135  564.84588   10  387  571.00000  547.87500  4.05%   153    5s
   673   208     cutoff   17       571.00000  549.00000  3.85%   178   10s
   947   259  568.03541   11  326  571.00000  550.05405  3.67%   183   15s
  1193   275     cutoff   11       571.00000  551.00000  3.50%   190   20s
  1451   265  555.34633   12  349  571.00000  553.00182  3.15%   195   25s
  1667   267  562.76316   18  252  571.00000  554.06640  2.97%   201   30s
  1900   264  562.44511   17  268  571.00000  555.16875  2.77%   207   35s
  2085   217  562.29816   15  295  571.00000  555.86667  2.65%   215   40s
  2347   176  564.55873   12  358  571.00000  557.75000  2.32%   216   45s
  2565   125  566.03333   15   12  571.00000  559.57385  2.00%   222   50s

Cutting planes:
  Learned: 7
  Gomory: 3
  Cover: 55
  Implied bound: 265
  MIR: 41
  StrongCG: 5
  Inf proof: 16
  Zero half: 3
  Mod-K: 4
  RLT: 8
  Relax-and-lift: 14

Explored 2807 nodes (612997 simplex iterations) in 53.66 seconds
Thread count was 1 (of 40 available processors)

Solution count 1: 571 

Optimal solution found (tolerance 1.00e-04)
Best objective 5.710000000000e+02, best bound 5.710000000000e+02, gap 0.0000%

User-callback calls 11545, time in user-callback 0.01 sec
